c .nnodes 80
c .nvars 95
c .nsuppvars 95
c .ids  0 1 2 3 4 5 6 7 8 9 10 11 12 13 14 15 16 17 18 19 20 21 22 23 24 25 26 27 28 29 30 31 32 33 34 35 36 37 38 39 40 41 42 43 44 45 46 47 48 49 50 51 52 53 54 55 56 57 58 59 60 61 62 63 64 65 66 67 68 69 70 71 72 73 74 75 76 77 78 79 80 81 82 83 84 85 86 87 88 89 90 91 92 93 94 
c .cnfids  221 222 223 156 224 225 226 219 220 227 228 229 230 157 158 231 232 233 234 235 236 237 238 159 160 239 240 241 242 243 244 245 246 161 162 247 248 249 250 163 164 165 166 167 168 169 170 171 172 173 174 175 176 177 178 179 180 181 182 183 184 185 186 187 188 189 190 191 192 193 194 195 196 197 198 199 200 201 202 203 204 205 206 207 208 209 210 211 212 213 214 217 218 215 216 
c .nroots 1
c .rootids 2
p cnf 251 675
3 221 4 66 -71 0
3 -221 -4 66 -71 0
-3 -66 0
-3 221 -4 0
-3 71 0
-3 -221 4 0
4 -5 -65 0
4 5 65 0
-4 5 -65 0
-4 -5 65 0
5 159 6 0
5 160 6 0
-5 -6 0
-5 -159 -160 0
6 159 -160 7 0
6 -159 160 7 0
-6 -7 0
-6 159 160 0
-6 -159 -160 0
7 161 8 0
7 162 8 0
-7 -8 0
-7 -161 -162 0
8 161 -162 9 0
8 -161 162 9 0
-8 -9 0
-8 161 162 0
-8 -161 -162 0
9 163 10 0
9 164 10 0
-9 -10 0
-9 -163 -164 0
10 163 -164 11 0
10 -163 164 11 0
-10 -11 0
-10 163 164 0
-10 -163 -164 0
11 165 12 0
11 166 12 0
-11 -12 0
-11 -165 -166 0
12 165 -166 13 0
12 -165 166 13 0
-12 -13 0
-12 165 166 0
-12 -165 -166 0
13 167 14 0
13 168 14 0
-13 -14 0
-13 -167 -168 0
14 167 -168 15 0
14 -167 168 15 0
-14 -15 0
-14 167 168 0
-14 -167 -168 0
15 169 16 0
15 170 16 0
-15 -16 0
-15 -169 -170 0
16 169 -170 17 0
16 -169 170 17 0
-16 -17 0
-16 169 170 0
-16 -169 -170 0
17 171 18 0
17 172 18 0
-17 -18 0
-17 -171 -172 0
18 171 -172 19 0
18 -171 172 19 0
-18 -19 0
-18 171 172 0
-18 -171 -172 0
19 173 20 0
19 174 20 0
-19 -20 0
-19 -173 -174 0
20 173 -174 21 0
20 -173 174 21 0
-20 -21 0
-20 173 174 0
-20 -173 -174 0
21 175 22 0
21 176 22 0
-21 -22 0
-21 -175 -176 0
22 175 -176 23 0
22 -175 176 23 0
-22 -23 0
-22 175 176 0
-22 -175 -176 0
23 177 24 0
23 178 24 0
-23 -24 0
-23 -177 -178 0
24 177 -178 25 0
24 -177 178 25 0
-24 -25 0
-24 177 178 0
-24 -177 -178 0
25 179 26 0
25 180 26 0
-25 -26 0
-25 -179 -180 0
26 179 -180 27 0
26 -179 180 27 0
-26 -27 0
-26 179 180 0
-26 -179 -180 0
27 181 28 0
27 182 28 0
-27 -28 0
-27 -181 -182 0
28 181 -182 29 0
28 -181 182 29 0
-28 -29 0
-28 181 182 0
-28 -181 -182 0
29 183 30 0
29 184 30 0
-29 -30 0
-29 -183 -184 0
30 183 -184 31 0
30 -183 184 31 0
-30 -31 0
-30 183 184 0
-30 -183 -184 0
31 185 32 0
31 186 32 0
-31 -32 0
-31 -185 -186 0
32 185 -186 33 0
32 -185 186 33 0
-32 -33 0
-32 185 186 0
-32 -185 -186 0
33 187 34 0
33 188 34 0
-33 -34 0
-33 -187 -188 0
34 187 -188 35 0
34 -187 188 35 0
-34 -35 0
-34 187 188 0
-34 -187 -188 0
35 189 36 0
35 190 36 0
-35 -36 0
-35 -189 -190 0
36 189 -190 37 0
36 -189 190 37 0
-36 -37 0
-36 189 190 0
-36 -189 -190 0
37 191 38 0
37 192 38 0
-37 -38 0
-37 -191 -192 0
38 191 -192 39 0
38 -191 192 39 0
-38 -39 0
-38 191 192 0
-38 -191 -192 0
39 193 40 0
39 194 40 0
-39 -40 0
-39 -193 -194 0
40 193 -194 41 0
40 -193 194 41 0
-40 -41 0
-40 193 194 0
-40 -193 -194 0
41 195 42 0
41 196 42 0
-41 -42 0
-41 -195 -196 0
42 195 -196 43 0
42 -195 196 43 0
-42 -43 0
-42 195 196 0
-42 -195 -196 0
43 197 44 0
43 198 44 0
-43 -44 0
-43 -197 -198 0
44 197 -198 45 0
44 -197 198 45 0
-44 -45 0
-44 197 198 0
-44 -197 -198 0
45 199 46 0
45 200 46 0
-45 -46 0
-45 -199 -200 0
46 199 -200 47 0
46 -199 200 47 0
-46 -47 0
-46 199 200 0
-46 -199 -200 0
47 201 48 0
47 202 48 0
-47 -48 0
-47 -201 -202 0
48 201 -202 49 0
48 -201 202 49 0
-48 -49 0
-48 201 202 0
-48 -201 -202 0
49 203 50 0
49 204 50 0
-49 -50 0
-49 -203 -204 0
50 203 -204 51 0
50 -203 204 51 0
-50 -51 0
-50 203 204 0
-50 -203 -204 0
51 205 52 0
51 206 52 0
-51 -52 0
-51 -205 -206 0
52 205 -206 53 0
52 -205 206 53 0
-52 -53 0
-52 205 206 0
-52 -205 -206 0
53 207 54 0
53 208 54 0
-53 -54 0
-53 -207 -208 0
54 207 -208 55 0
54 -207 208 55 0
-54 -55 0
-54 207 208 0
-54 -207 -208 0
55 209 56 0
55 210 56 0
-55 -56 0
-55 -209 -210 0
56 57 -64 0
-56 -57 0
-56 64 0
57 211 58 0
57 212 58 0
-57 -58 0
-57 -211 -212 0
58 211 -212 59 0
58 -211 212 59 0
-58 -59 0
-58 211 212 0
-58 -211 -212 0
59 213 60 0
59 214 60 0
-59 -60 0
-59 -213 -214 0
60 61 -63 0
-60 -61 0
-60 63 0
61 215 62 0
61 216 62 0
-61 -62 0
-61 -215 -216 0
62 215 -216 -217 -218 0
62 -215 216 -217 -218 0
-62 218 0
-62 215 216 0
-62 217 0
-62 -215 -216 0
63 213 -214 0
63 -213 214 0
-63 -213 -214 0
-63 213 214 0
64 209 -210 0
64 -209 210 0
-64 -209 -210 0
-64 209 210 0
65 157 -158 0
65 -157 158 0
-65 -157 -158 0
-65 157 158 0
66 -67 -69 0
66 67 69 0
-66 67 -69 0
-66 -67 69 0
67 157 68 0
67 158 68 0
-67 -68 0
-67 -157 -158 0
68 157 -158 5 0
68 -157 158 5 0
-68 -5 0
-68 157 158 0
-68 -157 -158 0
69 156 -70 0
69 -156 70 0
-69 -156 -70 0
-69 156 70 0
70 219 -220 0
70 -219 220 0
-70 -219 -220 0
-70 219 220 0
71 222 72 74 -77 0
71 -222 -72 74 -77 0
-71 -74 0
-71 222 -72 0
-71 77 0
-71 -222 72 0
72 -7 -73 0
72 7 73 0
-72 7 -73 0
-72 -7 73 0
73 159 -160 0
73 -159 160 0
-73 -159 -160 0
-73 159 160 0
74 223 -75 0
74 -223 75 0
-74 -223 -75 0
-74 223 75 0
75 -9 -76 0
75 9 76 0
-75 9 -76 0
-75 -9 76 0
76 161 -162 0
76 -161 162 0
-76 -161 -162 0
-76 161 162 0
77 224 78 80 -83 0
77 -224 -78 80 -83 0
-77 -80 0
-77 224 -78 0
-77 83 0
-77 -224 78 0
78 -11 -79 0
78 11 79 0
-78 11 -79 0
-78 -11 79 0
79 163 -164 0
79 -163 164 0
-79 -163 -164 0
-79 163 164 0
80 225 -81 0
80 -225 81 0
-80 -225 -81 0
-80 225 81 0
81 -13 -82 0
81 13 82 0
-81 13 -82 0
-81 -13 82 0
82 165 -166 0
82 -165 166 0
-82 -165 -166 0
-82 165 166 0
83 226 84 86 -89 0
83 -226 -84 86 -89 0
-83 -86 0
-83 226 -84 0
-83 89 0
-83 -226 84 0
84 -15 -85 0
84 15 85 0
-84 15 -85 0
-84 -15 85 0
85 167 -168 0
85 -167 168 0
-85 -167 -168 0
-85 167 168 0
86 227 -87 0
86 -227 87 0
-86 -227 -87 0
-86 227 87 0
87 -17 -88 0
87 17 88 0
-87 17 -88 0
-87 -17 88 0
88 169 -170 0
88 -169 170 0
-88 -169 -170 0
-88 169 170 0
89 228 90 92 -95 0
89 -228 -90 92 -95 0
-89 -92 0
-89 228 -90 0
-89 95 0
-89 -228 90 0
90 -19 -91 0
90 19 91 0
-90 19 -91 0
-90 -19 91 0
91 171 -172 0
91 -171 172 0
-91 -171 -172 0
-91 171 172 0
92 229 -93 0
92 -229 93 0
-92 -229 -93 0
-92 229 93 0
93 -21 -94 0
93 21 94 0
-93 21 -94 0
-93 -21 94 0
94 173 -174 0
94 -173 174 0
-94 -173 -174 0
-94 173 174 0
95 230 96 98 -101 0
95 -230 -96 98 -101 0
-95 -98 0
-95 230 -96 0
-95 101 0
-95 -230 96 0
96 -23 -97 0
96 23 97 0
-96 23 -97 0
-96 -23 97 0
97 175 -176 0
97 -175 176 0
-97 -175 -176 0
-97 175 176 0
98 231 -99 0
98 -231 99 0
-98 -231 -99 0
-98 231 99 0
99 -25 -100 0
99 25 100 0
-99 25 -100 0
-99 -25 100 0
100 177 -178 0
100 -177 178 0
-100 -177 -178 0
-100 177 178 0
101 232 102 104 -107 0
101 -232 -102 104 -107 0
-101 -104 0
-101 232 -102 0
-101 107 0
-101 -232 102 0
102 -27 -103 0
102 27 103 0
-102 27 -103 0
-102 -27 103 0
103 179 -180 0
103 -179 180 0
-103 -179 -180 0
-103 179 180 0
104 233 -105 0
104 -233 105 0
-104 -233 -105 0
-104 233 105 0
105 -29 -106 0
105 29 106 0
-105 29 -106 0
-105 -29 106 0
106 181 -182 0
106 -181 182 0
-106 -181 -182 0
-106 181 182 0
107 234 108 110 -113 0
107 -234 -108 110 -113 0
-107 -110 0
-107 234 -108 0
-107 113 0
-107 -234 108 0
108 -31 -109 0
108 31 109 0
-108 31 -109 0
-108 -31 109 0
109 183 -184 0
109 -183 184 0
-109 -183 -184 0
-109 183 184 0
110 235 -111 0
110 -235 111 0
-110 -235 -111 0
-110 235 111 0
111 -33 -112 0
111 33 112 0
-111 33 -112 0
-111 -33 112 0
112 185 -186 0
112 -185 186 0
-112 -185 -186 0
-112 185 186 0
113 236 114 116 -119 0
113 -236 -114 116 -119 0
-113 -116 0
-113 236 -114 0
-113 119 0
-113 -236 114 0
114 -35 -115 0
114 35 115 0
-114 35 -115 0
-114 -35 115 0
115 187 -188 0
115 -187 188 0
-115 -187 -188 0
-115 187 188 0
116 237 -117 0
116 -237 117 0
-116 -237 -117 0
-116 237 117 0
117 -37 -118 0
117 37 118 0
-117 37 -118 0
-117 -37 118 0
118 189 -190 0
118 -189 190 0
-118 -189 -190 0
-118 189 190 0
119 238 120 122 -125 0
119 -238 -120 122 -125 0
-119 -122 0
-119 238 -120 0
-119 125 0
-119 -238 120 0
120 -39 -121 0
120 39 121 0
-120 39 -121 0
-120 -39 121 0
121 191 -192 0
121 -191 192 0
-121 -191 -192 0
-121 191 192 0
122 239 -123 0
122 -239 123 0
-122 -239 -123 0
-122 239 123 0
123 -41 -124 0
123 41 124 0
-123 41 -124 0
-123 -41 124 0
124 193 -194 0
124 -193 194 0
-124 -193 -194 0
-124 193 194 0
125 240 126 128 -131 0
125 -240 -126 128 -131 0
-125 -128 0
-125 240 -126 0
-125 131 0
-125 -240 126 0
126 -43 -127 0
126 43 127 0
-126 43 -127 0
-126 -43 127 0
127 195 -196 0
127 -195 196 0
-127 -195 -196 0
-127 195 196 0
128 241 -129 0
128 -241 129 0
-128 -241 -129 0
-128 241 129 0
129 -45 -130 0
129 45 130 0
-129 45 -130 0
-129 -45 130 0
130 197 -198 0
130 -197 198 0
-130 -197 -198 0
-130 197 198 0
131 242 132 134 -137 0
131 -242 -132 134 -137 0
-131 -134 0
-131 242 -132 0
-131 137 0
-131 -242 132 0
132 -47 -133 0
132 47 133 0
-132 47 -133 0
-132 -47 133 0
133 199 -200 0
133 -199 200 0
-133 -199 -200 0
-133 199 200 0
134 243 -135 0
134 -243 135 0
-134 -243 -135 0
-134 243 135 0
135 -49 -136 0
135 49 136 0
-135 49 -136 0
-135 -49 136 0
136 201 -202 0
136 -201 202 0
-136 -201 -202 0
-136 201 202 0
137 244 138 140 -143 0
137 -244 -138 140 -143 0
-137 -140 0
-137 244 -138 0
-137 143 0
-137 -244 138 0
138 -51 -139 0
138 51 139 0
-138 51 -139 0
-138 -51 139 0
139 203 -204 0
139 -203 204 0
-139 -203 -204 0
-139 203 204 0
140 245 -141 0
140 -245 141 0
-140 -245 -141 0
-140 245 141 0
141 -53 -142 0
141 53 142 0
-141 53 -142 0
-141 -53 142 0
142 205 -206 0
142 -205 206 0
-142 -205 -206 0
-142 205 206 0
143 246 144 146 -148 0
143 -246 -144 146 -148 0
-143 -146 0
-143 246 -144 0
-143 148 0
-143 -246 144 0
144 -55 -145 0
144 55 145 0
-144 55 -145 0
-144 -55 145 0
145 207 -208 0
145 -207 208 0
-145 -207 -208 0
-145 207 208 0
146 247 -147 0
146 -247 147 0
-146 -247 -147 0
-146 247 147 0
147 -57 -64 0
147 57 64 0
-147 57 -64 0
-147 -57 64 0
148 -248 -149 -151 0
148 248 149 -151 0
-148 151 0
-148 -248 149 0
-148 248 -149 0
149 -59 -150 0
149 59 150 0
-149 59 -150 0
-149 -59 150 0
150 211 -212 0
150 -211 212 0
-150 -211 -212 0
-150 211 212 0
151 -249 250 -152 153 0
151 249 -250 152 -153 0
151 249 250 152 153 0
151 -249 -250 -152 -153 0
-151 -249 152 0
-151 249 -152 0
-151 250 -153 0
-151 -250 153 0
152 -61 -63 0
152 61 63 0
-152 61 -63 0
-152 -61 63 0
153 154 -155 0
153 -154 155 0
-153 -154 -155 0
-153 154 155 0
154 -217 -218 0
-154 217 0
-154 218 0
155 215 -216 0
155 -215 216 0
-155 -215 -216 0
-155 215 216 0
251 0
2 -3 0
-2 3 0
2 0

